# Solution for model Food_Bank
# Objective value = 1.2832497072638574e+06
x_1_172 1
x_1_62 1
x_1_206 1
x_1_210 1
x_1_33 0
x_1_153 1
x_1_102 0
x_1_151 1
x_1_4 0
x_1_162 0
x_1_53 1
x_1_5 1
x_1_6 1
x_1_222 1
x_1_215 0
x_1_165 0
x_1_30 0
x_1_155 0
x_1_207 0
x_1_196 0
x_1_110 0
x_1_140 0
x_1_25 0
y_172_28 0
y_172_19 0
y_172_10 1
y_172_27 0
y_172_11 0
y_172_2 0
y_172_12 0
y_172_25 0
y_172_9 0
y_172_76 0
y_62_28 0
y_62_19 1
y_62_10 0
y_62_27 0
y_62_11 0
y_62_2 0
y_62_12 0
y_62_25 0
y_62_9 0
y_62_76 0
y_206_28 0
y_206_19 0
y_206_10 0
y_206_27 0
y_206_11 0
y_206_2 0
y_206_12 0
y_206_25 1
y_206_9 0
y_206_76 0
y_210_28 0
y_210_19 0
y_210_10 0
y_210_27 1
y_210_11 0
y_210_2 0
y_210_12 0
y_210_25 0
y_210_9 0
y_210_76 0
y_33_28 0
y_33_19 0
y_33_10 0
y_33_27 0
y_33_11 0
y_33_2 0
y_33_12 0
y_33_25 0
y_33_9 0
y_33_76 0
y_153_28 0
y_153_19 0
y_153_10 0
y_153_27 0
y_153_11 0
y_153_2 1
y_153_12 0
y_153_25 0
y_153_9 0
y_153_76 0
y_102_28 0
y_102_19 0
y_102_10 0
y_102_27 0
y_102_11 0
y_102_2 0
y_102_12 0
y_102_25 0
y_102_9 0
y_102_76 0
y_151_28 0
y_151_19 0
y_151_10 0
y_151_27 0
y_151_11 0
y_151_2 0
y_151_12 0
y_151_25 0
y_151_9 1
y_151_76 0
y_4_28 0
y_4_19 0
y_4_10 0
y_4_27 0
y_4_11 0
y_4_2 0
y_4_12 0
y_4_25 0
y_4_9 0
y_4_76 0
y_162_28 0
y_162_19 0
y_162_10 0
y_162_27 0
y_162_11 0
y_162_2 0
y_162_12 0
y_162_25 0
y_162_9 0
y_162_76 0
y_53_28 0
y_53_19 0
y_53_10 0
y_53_27 0
y_53_11 1
y_53_2 0
y_53_12 0
y_53_25 0
y_53_9 0
y_53_76 0
y_5_28 1
y_5_19 0
y_5_10 0
y_5_27 0
y_5_11 0
y_5_2 0
y_5_12 0
y_5_25 0
y_5_9 0
y_5_76 0
y_6_28 0
y_6_19 0
y_6_10 0
y_6_27 0
y_6_11 0
y_6_2 0
y_6_12 1
y_6_25 0
y_6_9 0
y_6_76 0
y_222_28 0
y_222_19 0
y_222_10 0
y_222_27 0
y_222_11 0
y_222_2 0
y_222_12 0
y_222_25 0
y_222_9 0
y_222_76 1
y_215_28 0
y_215_19 0
y_215_10 0
y_215_27 0
y_215_11 0
y_215_2 0
y_215_12 0
y_215_25 0
y_215_9 0
y_215_76 0
y_165_28 0
y_165_19 0
y_165_10 0
y_165_27 0
y_165_11 0
y_165_2 0
y_165_12 0
y_165_25 0
y_165_9 0
y_165_76 0
y_30_28 0
y_30_19 0
y_30_10 0
y_30_27 0
y_30_11 0
y_30_2 0
y_30_12 0
y_30_25 0
y_30_9 0
y_30_76 0
y_155_28 0
y_155_19 0
y_155_10 0
y_155_27 0
y_155_11 0
y_155_2 0
y_155_12 0
y_155_25 0
y_155_9 0
y_155_76 0
y_207_28 0
y_207_19 0
y_207_10 0
y_207_27 0
y_207_11 0
y_207_2 0
y_207_12 0
y_207_25 0
y_207_9 0
y_207_76 0
y_196_28 0
y_196_19 0
y_196_10 0
y_196_27 0
y_196_11 0
y_196_2 0
y_196_12 0
y_196_25 0
y_196_9 0
y_196_76 0
y_110_28 0
y_110_19 0
y_110_10 0
y_110_27 0
y_110_11 0
y_110_2 0
y_110_12 0
y_110_25 0
y_110_9 0
y_110_76 0
y_140_28 0
y_140_19 0
y_140_10 0
y_140_27 0
y_140_11 0
y_140_2 0
y_140_12 0
y_140_25 0
y_140_9 0
y_140_76 0
y_25_28 0
y_25_19 0
y_25_10 0
y_25_27 0
y_25_11 0
y_25_2 0
y_25_12 0
y_25_25 0
y_25_9 0
y_25_76 0
aFP_1_172 1.2773357694533353e+04
aFP_1_62 15865.4887966827
aFP_1_206 1.5030891048994596e+04
aFP_1_210 1.1077936128556916e+04
aFP_1_33 0
aFP_1_153 7.3886155483533030e+03
aFP_1_102 0
aFP_1_151 2.4165773346182409e+03
aFP_1_4 0
aFP_1_162 0
aFP_1_53 1.3414208804693433e+04
aFP_1_5 1.1649515239816596e+04
aFP_1_6 1.1387069011009353e+04
aFP_1_222 9.8648790520528546e+03
aFP_1_215 0
aFP_1_165 0
aFP_1_30 0
aFP_1_155 0
aFP_1_207 0
aFP_1_196 0
aFP_1_110 0
aFP_1_140 0
aFP_1_25 0
aPZ_172_28 0
aPZ_62_28 0
aPZ_206_28 0
aPZ_210_28 0
aPZ_33_28 0
aPZ_153_28 0
aPZ_102_28 0
aPZ_151_28 0
aPZ_4_28 0
aPZ_162_28 0
aPZ_53_28 0
aPZ_5_28 1.1649515239820412e+04
aPZ_6_28 0
aPZ_222_28 0
aPZ_215_28 0
aPZ_165_28 0
aPZ_30_28 0
aPZ_155_28 0
aPZ_207_28 0
aPZ_196_28 0
aPZ_110_28 0
aPZ_140_28 0
aPZ_25_28 0
aPZ_172_19 0
aPZ_62_19 1.5865488796681810e+04
aPZ_206_19 0
aPZ_210_19 0
aPZ_33_19 0
aPZ_153_19 0
aPZ_102_19 0
aPZ_151_19 0
aPZ_4_19 0
aPZ_162_19 0
aPZ_53_19 0
aPZ_5_19 0
aPZ_6_19 0
aPZ_222_19 0
aPZ_215_19 0
aPZ_165_19 0
aPZ_30_19 0
aPZ_155_19 0
aPZ_207_19 0
aPZ_196_19 0
aPZ_110_19 0
aPZ_140_19 0
aPZ_25_19 0
aPZ_172_10 1.2773357694533353e+04
aPZ_62_10 0
aPZ_206_10 0
aPZ_210_10 0
aPZ_33_10 0
aPZ_153_10 0
aPZ_102_10 0
aPZ_151_10 0
aPZ_4_10 0
aPZ_162_10 0
aPZ_53_10 0
aPZ_5_10 0
aPZ_6_10 0
aPZ_222_10 0
aPZ_215_10 0
aPZ_165_10 0
aPZ_30_10 0
aPZ_155_10 0
aPZ_207_10 0
aPZ_196_10 0
aPZ_110_10 0
aPZ_140_10 0
aPZ_25_10 0
aPZ_172_27 0
aPZ_62_27 0
aPZ_206_27 0
aPZ_210_27 1.1077936128556896e+04
aPZ_33_27 0
aPZ_153_27 0
aPZ_102_27 0
aPZ_151_27 0
aPZ_4_27 0
aPZ_162_27 0
aPZ_53_27 0
aPZ_5_27 0
aPZ_6_27 0
aPZ_222_27 0
aPZ_215_27 0
aPZ_165_27 0
aPZ_30_27 0
aPZ_155_27 0
aPZ_207_27 0
aPZ_196_27 0
aPZ_110_27 0
aPZ_140_27 0
aPZ_25_27 0
aPZ_172_11 0
aPZ_62_11 0
aPZ_206_11 0
aPZ_210_11 0
aPZ_33_11 0
aPZ_153_11 0
aPZ_102_11 0
aPZ_151_11 0
aPZ_4_11 0
aPZ_162_11 0
aPZ_53_11 1.3414208804693415e+04
aPZ_5_11 0
aPZ_6_11 0
aPZ_222_11 0
aPZ_215_11 0
aPZ_165_11 0
aPZ_30_11 0
aPZ_155_11 0
aPZ_207_11 0
aPZ_196_11 0
aPZ_110_11 0
aPZ_140_11 0
aPZ_25_11 0
aPZ_172_2 0
aPZ_62_2 0
aPZ_206_2 0
aPZ_210_2 0
aPZ_33_2 0
aPZ_153_2 7.3886155483708253e+03
aPZ_102_2 0
aPZ_151_2 0
aPZ_4_2 0
aPZ_162_2 0
aPZ_53_2 0
aPZ_5_2 0
aPZ_6_2 0
aPZ_222_2 0
aPZ_215_2 0
aPZ_165_2 0
aPZ_30_2 0
aPZ_155_2 0
aPZ_207_2 0
aPZ_196_2 0
aPZ_110_2 0
aPZ_140_2 0
aPZ_25_2 0
aPZ_172_12 0
aPZ_62_12 0
aPZ_206_12 0
aPZ_210_12 0
aPZ_33_12 0
aPZ_153_12 0
aPZ_102_12 0
aPZ_151_12 0
aPZ_4_12 0
aPZ_162_12 0
aPZ_53_12 0
aPZ_5_12 0
aPZ_6_12 1.1387069011009342e+04
aPZ_222_12 0
aPZ_215_12 0
aPZ_165_12 0
aPZ_30_12 0
aPZ_155_12 0
aPZ_207_12 0
aPZ_196_12 0
aPZ_110_12 0
aPZ_140_12 0
aPZ_25_12 0
aPZ_172_25 0
aPZ_62_25 0
aPZ_206_25 1.5030891048994792e+04
aPZ_210_25 0
aPZ_33_25 0
aPZ_153_25 0
aPZ_102_25 0
aPZ_151_25 0
aPZ_4_25 0
aPZ_162_25 0
aPZ_53_25 0
aPZ_5_25 0
aPZ_6_25 0
aPZ_222_25 0
aPZ_215_25 0
aPZ_165_25 0
aPZ_30_25 0
aPZ_155_25 0
aPZ_207_25 0
aPZ_196_25 0
aPZ_110_25 0
aPZ_140_25 0
aPZ_25_25 0
aPZ_172_9 0
aPZ_62_9 0
aPZ_206_9 0
aPZ_210_9 0
aPZ_33_9 0
aPZ_153_9 0
aPZ_102_9 0
aPZ_151_9 2416.5773346182
aPZ_4_9 0
aPZ_162_9 0
aPZ_53_9 0
aPZ_5_9 0
aPZ_6_9 0
aPZ_222_9 0
aPZ_215_9 0
aPZ_165_9 0
aPZ_30_9 0
aPZ_155_9 0
aPZ_207_9 0
aPZ_196_9 0
aPZ_110_9 0
aPZ_140_9 0
aPZ_25_9 0
aPZ_172_76 0
aPZ_62_76 0
aPZ_206_76 0
aPZ_210_76 0
aPZ_33_76 0
aPZ_153_76 0
aPZ_102_76 0
aPZ_151_76 0
aPZ_4_76 0
aPZ_162_76 0
aPZ_53_76 0
aPZ_5_76 0
aPZ_6_76 0
aPZ_222_76 9864.87905205355
aPZ_215_76 0
aPZ_165_76 0
aPZ_30_76 0
aPZ_155_76 0
aPZ_207_76 0
aPZ_196_76 0
aPZ_110_76 0
aPZ_140_76 0
aPZ_25_76 0
nT_1_172 2
nT_1_62 2
nT_1_206 2
nT_1_210 2
nT_1_33 0
nT_1_153 1
nT_1_102 0
nT_1_151 1
nT_1_4 0
nT_1_162 0
nT_1_53 2
nT_1_5 2
nT_1_6 2
nT_1_222 1
nT_1_215 0
nT_1_165 0
nT_1_30 0
nT_1_155 0
nT_1_207 0
nT_1_196 0
nT_1_110 0
nT_1_140 0
nT_1_25 0
ort_1_172 30
ort_1_62 30
ort_1_206 30
ort_1_210 30
ort_1_33 0
ort_1_153 2.9999999995169158e+01
ort_1_102 0
ort_1_151 2.3999999999983345e+02
ort_1_4 0
ort_1_162 0
ort_1_53 3.0000000000000345e+01
ort_1_5 2.9999999910771045e+01
ort_1_6 3.0000000000000746e+01
ort_1_222 30
ort_1_215 0
ort_1_165 0
ort_1_30 0
ort_1_155 0
ort_1_207 0
ort_1_196 0
ort_1_110 0
ort_1_140 0
ort_1_25 0
opt_1_172 2.7467998781933275e+01
opt_1_62 2.7306725560159098e+01
opt_1_206 2.7328455447578047e+01
opt_1_210 2.7499436526898798e+01
opt_1_33 0
opt_1_153 2.7597235884404494e+01
opt_1_102 0
opt_1_151 2.3763917113310174e+02
opt_1_4 0
opt_1_162 0
opt_1_53 2.6922622893098168e+01
opt_1_5 2.6984190815446212e+01
opt_1_6 2.6997313216116108e+01
opt_1_222 2.7066756048188807e+01
opt_1_215 0
opt_1_165 0
opt_1_30 0
opt_1_155 0
opt_1_207 0
opt_1_196 0
opt_1_110 0
opt_1_140 0
opt_1_25 0
dt_172_28 0
dt_172_19 0
dt_172_10 6.5746751930633245e+00
dt_172_27 0
dt_172_11 0
dt_172_2 0
dt_172_12 0
dt_172_25 0
dt_172_9 0
dt_172_76 0
dt_62_28 0
dt_62_19 7.6649210741082765e+00
dt_62_10 0
dt_62_27 0
dt_62_11 0
dt_62_2 0
dt_62_12 0
dt_62_25 0
dt_62_9 0
dt_62_76 0
dt_206_28 0
dt_206_19 0
dt_206_10 0
dt_206_27 0
dt_206_11 0
dt_206_2 0
dt_206_12 0
dt_206_25 7.4928118668669494e+00
dt_206_9 0
dt_206_76 0
dt_210_28 0
dt_210_19 0
dt_210_10 0
dt_210_27 6.3732776449705151e+00
dt_210_11 0
dt_210_2 0
dt_210_12 0
dt_210_25 0
dt_210_9 0
dt_210_76 0
dt_33_28 0
dt_33_19 0
dt_33_10 0
dt_33_27 0
dt_33_11 0
dt_33_2 0
dt_33_12 0
dt_33_25 0
dt_33_9 0
dt_33_76 0
dt_153_28 0
dt_153_19 0
dt_153_10 0
dt_153_27 0
dt_153_11 0
dt_153_2 4.7940154419163905e+00
dt_153_12 0
dt_153_25 0
dt_153_9 0
dt_153_76 0
dt_102_28 0
dt_102_19 0
dt_102_10 0
dt_102_27 0
dt_102_11 0
dt_102_2 0
dt_102_12 0
dt_102_25 0
dt_102_9 0
dt_102_76 0
dt_151_28 0
dt_151_19 0
dt_151_10 0
dt_151_27 0
dt_151_11 0
dt_151_2 0
dt_151_12 0
dt_151_25 0
dt_151_9 3.3098020671209176e+00
dt_151_76 0
dt_4_28 0
dt_4_19 0
dt_4_10 0
dt_4_27 0
dt_4_11 0
dt_4_2 0
dt_4_12 0
dt_4_25 0
dt_4_9 0
dt_4_76 0
dt_162_28 0
dt_162_19 0
dt_162_10 0
dt_162_27 0
dt_162_11 0
dt_162_2 0
dt_162_12 0
dt_162_25 0
dt_162_9 0
dt_162_76 0
dt_53_28 0
dt_53_19 0
dt_53_10 0
dt_53_27 0
dt_53_11 6.7909730816399039e+00
dt_53_2 0
dt_53_12 0
dt_53_25 0
dt_53_9 0
dt_53_76 0
dt_5_28 6.5573303339323017e+00
dt_5_19 0
dt_5_10 0
dt_5_27 0
dt_5_11 0
dt_5_2 0
dt_5_12 0
dt_5_25 0
dt_5_9 0
dt_5_76 0
dt_6_28 0
dt_6_19 0
dt_6_10 0
dt_6_27 0
dt_6_11 0
dt_6_2 0
dt_6_12 6.8094741538505854e+00
dt_6_25 0
dt_6_9 0
dt_6_76 0
dt_222_28 0
dt_222_19 0
dt_222_10 0
dt_222_27 0
dt_222_11 0
dt_222_2 0
dt_222_12 0
dt_222_25 0
dt_222_9 0
dt_222_76 6.0687076626034093e+00
dt_215_28 0
dt_215_19 0
dt_215_10 0
dt_215_27 0
dt_215_11 0
dt_215_2 0
dt_215_12 0
dt_215_25 0
dt_215_9 0
dt_215_76 0
dt_165_28 0
dt_165_19 0
dt_165_10 0
dt_165_27 0
dt_165_11 0
dt_165_2 0
dt_165_12 0
dt_165_25 0
dt_165_9 0
dt_165_76 0
dt_30_28 0
dt_30_19 0
dt_30_10 0
dt_30_27 0
dt_30_11 0
dt_30_2 0
dt_30_12 0
dt_30_25 0
dt_30_9 0
dt_30_76 0
dt_155_28 0
dt_155_19 0
dt_155_10 0
dt_155_27 0
dt_155_11 0
dt_155_2 0
dt_155_12 0
dt_155_25 0
dt_155_9 0
dt_155_76 0
dt_207_28 0
dt_207_19 0
dt_207_10 0
dt_207_27 0
dt_207_11 0
dt_207_2 0
dt_207_12 0
dt_207_25 0
dt_207_9 0
dt_207_76 0
dt_196_28 0
dt_196_19 0
dt_196_10 0
dt_196_27 0
dt_196_11 0
dt_196_2 0
dt_196_12 0
dt_196_25 0
dt_196_9 0
dt_196_76 0
dt_110_28 0
dt_110_19 0
dt_110_10 0
dt_110_27 0
dt_110_11 0
dt_110_2 0
dt_110_12 0
dt_110_25 0
dt_110_9 0
dt_110_76 0
dt_140_28 0
dt_140_19 0
dt_140_10 0
dt_140_27 0
dt_140_11 0
dt_140_2 0
dt_140_12 0
dt_140_25 0
dt_140_9 0
dt_140_76 0
dt_25_28 0
dt_25_19 0
dt_25_10 0
dt_25_27 0
dt_25_11 0
dt_25_2 0
dt_25_12 0
dt_25_25 0
dt_25_9 0
dt_25_76 0
ut_1_172 4.4706751931337356e+00
ut_1_62 5.5529210788863264e+00
ut_1_206 5.2608118669536550e+00
ut_1_210 3.8772776450417621e+00
ut_1_33 0
ut_1_153 2.5860154420193271e+00
ut_1_102 0
ut_1_151 8.4580206712193784e-01
ut_1_4 0
ut_1_162 0
ut_1_53 4.6949730816485760e+00
ut_1_5 4.0773303339405071e+00
ut_1_6 3.9854741538591290e+00
ut_1_222 3.4527076626783479e+00
ut_1_215 0
ut_1_165 0
ut_1_30 0
ut_1_155 0
ut_1_207 0
ut_1_196 0
ut_1_110 0
ut_1_140 0
ut_1_25 0
fFP_1_172 8
fFP_1_62 8
fFP_1_206 8
fFP_1_210 8
fFP_1_33 0
fFP_1_153 8
fFP_1_102 0
fFP_1_151 1
fFP_1_4 0
fFP_1_162 0
fFP_1_53 8
fFP_1_5 8
fFP_1_6 8
fFP_1_222 8
fFP_1_215 0
fFP_1_165 0
fFP_1_30 0
fFP_1_155 0
fFP_1_207 0
fFP_1_196 0
fFP_1_110 0
fFP_1_140 0
fFP_1_25 0
dt_28 6.5573303339336135e+00
dt_19 7.6649210741233826e+00
dt_10 6.5746751930828946e+00
dt_27 6.3732776449914521e+00
dt_11 6.79097308164219
dt_2 4.7940154419184910e+00
dt_12 6.8094741538528005e+00
dt_25 7.4928118668834749e+00
dt_9 3.3098020671161623e+00
dt_76 6.0687076626231162e+00
dtt_28 52.458642671472
dtt_19 6.1319368592990351e+01
dtt_10 5.2597401544666283e+01
dtt_27 5.0986221159934694e+01
dtt_11 5.4327784653140718e+01
dtt_2 3.8352123535355723e+01
dtt_12 5.4475793230825523e+01
dtt_25 5.9942494935071096e+01
dtt_9 2.6478416537160257e+01
dtt_76 4.8549661300988014e+01
dt_last_28 2.7101094701720285e-08
dt_last_19 0
dt_last_10 0
dt_last_27 0
dt_last_11 4.2274450606782921e-10
dt_last_2 7.6684614214173052e-10
dt_last_12 1.6123635759868193e-10
dt_last_25 0
dt_last_9 3.1070612749317661e-10
dt_last_76 0
dep_cost 1.2303379247869896e+06
log_cost 5.2911782476867891e+04
